;symbolic execution tree
(push)
(assert (le x0 com.lowagie.text.pdf.PdfObject))
(check-sat)
(push)
(assert (le x0 com.lowagie.text.pdf.PdfObject))
(check-sat)
(push)
(assert (le x0 com.lowagie.text.pdf.PdfObject))
(check-sat)
(push)
(assert (le x0 com.lowagie.text.pdf.PdfObject))
(check-sat)
(pop)
(push)
(assert (not (le x0 com.lowagie.text.pdf.PdfObject)))
(check-sat)
(pop)
(pop)
(push)
(assert (not (le x0 com.lowagie.text.pdf.PdfObject)))
(check-sat)
(pop)
(push)
(assert (le x0 com.lowagie.text.pdf.PdfObject))
(check-sat)
(push)
(assert (le x0 com.lowagie.text.pdf.PdfObject))
(check-sat)
(push)
(assert (le x0 com.lowagie.text.pdf.PdfObject))
(check-sat)
(pop)
(push)
(assert (not (le x0 com.lowagie.text.pdf.PdfObject)))
(check-sat)
(pop)
(pop)
(push)
(assert (not (le x0 com.lowagie.text.pdf.PdfObject)))
(check-sat)
(pop)
(push)
(assert (le x0 com.lowagie.text.pdf.PdfObject))
(check-sat)
(push)
(assert (le x0 com.lowagie.text.pdf.PdfObject))
(check-sat)
(push)
(assert (le x0 com.lowagie.text.pdf.PdfObject))
(check-sat)
(push)
(assert (le x0 com.lowagie.text.pdf.PdfObject))
(check-sat)
(push)
(assert (le x0 com.lowagie.text.pdf.PdfObject))
(check-sat)
(push)
(assert (le x0 com.lowagie.text.pdf.PdfObject))
(check-sat)
(push)
(assert (le x0 com.lowagie.text.pdf.PRIndirectReference))
(check-sat)
(push)
(assert (le x0 com.lowagie.text.pdf.PdfObject))
(check-sat)
(pop)
(push)
(assert (not (le x0 com.lowagie.text.pdf.PdfObject)))
(check-sat)
(pop)
(pop)
(push)
(assert (le x0 com.lowagie.text.pdf.PdfLiteral))
(check-sat)
(pop)
(push)
(assert (not (le x0 com.lowagie.text.pdf.PdfDictionary)))
(check-sat)
(push)
(assert (le x0 com.lowagie.text.pdf.PdfObject))
(check-sat)
(push)
(assert (not (le x0 com.lowagie.text.pdf.PdfString)))
(check-sat)
(push)
(assert (not (le x0 com.lowagie.text.pdf.PdfLiteral)))
(check-sat)
(push)
(assert (not (le x0 com.lowagie.text.pdf.PdfArray)))
(check-sat)
(pop)
(pop)
(pop)
(pop)
(pop)
(push)
(assert (le x0 com.lowagie.text.pdf.PdfWriter_currencysign_PdfTrailer))
(check-sat)
(pop)
(push)
(assert (le x0 com.lowagie.text.pdf.PdfArray))
(check-sat)
(push)
(assert (not (le x0 com.lowagie.text.pdf.PdfDashPattern)))
(check-sat)
(pop)
(pop)
(push)
(assert (le x0 com.lowagie.text.pdf.PdfString))
(check-sat)
(pop)
(push)
(assert (not (le x0 com.lowagie.text.pdf.PdfOutline)))
(check-sat)
(push)
(assert (not (le x0 com.lowagie.text.pdf.PdfWriter_currencysign_PdfTrailer)))
(check-sat)
(push)
(assert (le x0 com.lowagie.text.pdf.PdfDictionary))
(check-sat)
(push)
(assert (not (le x0 com.lowagie.text.pdf.PdfStream)))
(check-sat)
(pop)
(pop)
(pop)
(pop)
(push)
(assert (le x0 com.lowagie.text.pdf.PdfStream))
(check-sat)
(push)
(assert (not (le x0 com.lowagie.text.pdf.PdfEFStream)))
(check-sat)
(push)
(assert (not (le x0 com.lowagie.text.pdf.PRStream)))
(check-sat)
(pop)
(pop)
(pop)
(push)
(assert (le x0 com.lowagie.text.pdf.PRStream))
(check-sat)
(pop)
(push)
(assert (le x0 com.lowagie.text.pdf.PdfDashPattern))
(check-sat)
(pop)
(push)
(assert (le x0 com.lowagie.text.pdf.PdfEFStream))
(check-sat)
(pop)
(push)
(assert (le x0 com.lowagie.text.pdf.PdfOutline))
(check-sat)
(pop)
(pop)
(push)
(assert (not (le x0 com.lowagie.text.pdf.PdfObject)))
(check-sat)
(pop)
(pop)
(push)
(assert (not (le x0 com.lowagie.text.pdf.PdfObject)))
(check-sat)
(pop)
(pop)
(push)
(assert (not (le x0 com.lowagie.text.pdf.PdfObject)))
(check-sat)
(pop)
(pop)
(push)
(assert (not (le x0 com.lowagie.text.pdf.PdfObject)))
(check-sat)
(pop)
(push)
(assert (le x0 com.lowagie.text.pdf.PdfObject))
(check-sat)
(push)
(assert (le x0 com.lowagie.text.pdf.PdfObject))
(check-sat)
(pop)
(push)
(assert (not (le x0 com.lowagie.text.pdf.PdfObject)))
(check-sat)
(pop)
(pop)
(push)
(assert (not (le x0 com.lowagie.text.pdf.PdfObject)))
(check-sat)
(pop)
(pop)
(push)
(assert (not (le x0 com.lowagie.text.pdf.PdfObject)))
(check-sat)
(pop)
(push)
(assert (le x0 com.lowagie.text.pdf.PdfObject))
(check-sat)
(pop)
(push)
(assert (not (le x0 com.lowagie.text.pdf.PdfObject)))
(check-sat)
(pop)
(push)
(assert (le x0 com.lowagie.text.pdf.PdfObject))
(check-sat)
(push)
(assert (le x0 com.lowagie.text.pdf.PdfObject))
(check-sat)
(push)
(assert (le x0 com.lowagie.text.pdf.PdfObject))
(check-sat)
(push)
(assert (le x0 com.lowagie.text.pdf.PdfObject))
(check-sat)
(pop)
(push)
(assert (not (le x0 com.lowagie.text.pdf.PdfObject)))
(check-sat)
(pop)
(push)
(assert (le x0 com.lowagie.text.pdf.PdfObject))
(check-sat)
(pop)
(push)
(assert (not (le x0 com.lowagie.text.pdf.PdfObject)))
(check-sat)
(pop)
(pop)
(push)
(assert (not (le x0 com.lowagie.text.pdf.PdfObject)))
(check-sat)
(pop)
(push)
(assert (le x0 com.lowagie.text.pdf.PdfObject))
(check-sat)
(push)
(assert (le x0 com.lowagie.text.pdf.PdfObject))
(check-sat)
(push)
(assert (le x0 com.lowagie.text.pdf.PdfObject))
(check-sat)
(pop)
(push)
(assert (not (le x0 com.lowagie.text.pdf.PdfObject)))
(check-sat)
(pop)
(pop)
(push)
(assert (not (le x0 com.lowagie.text.pdf.PdfObject)))
(check-sat)
(pop)
(pop)
(push)
(assert (not (le x0 com.lowagie.text.pdf.PdfObject)))
(check-sat)
(pop)
(push)
(assert (le x0 com.lowagie.text.pdf.PdfObject))
(check-sat)
(pop)
(push)
(assert (not (le x0 com.lowagie.text.pdf.PdfObject)))
(check-sat)
(pop)
(push)
(assert (le x0 com.lowagie.text.pdf.PdfObject))
(check-sat)
(push)
(assert (le x0 com.lowagie.text.pdf.PdfObject))
(check-sat)
(pop)
(push)
(assert (not (le x0 com.lowagie.text.pdf.PdfObject)))
(check-sat)
(pop)
(pop)
(push)
(assert (not (le x0 com.lowagie.text.pdf.PdfObject)))
(check-sat)
(pop)
(push)
(assert (le x0 com.lowagie.text.pdf.PdfObject))
(check-sat)
(pop)
(push)
(assert (not (le x0 com.lowagie.text.pdf.PdfObject)))
(check-sat)
(pop)
(pop)
(push)
(assert (not (le x0 com.lowagie.text.pdf.PdfObject)))
(check-sat)
(pop)
(push)
(assert (le x0 com.lowagie.text.pdf.PdfObject))
(check-sat)
(pop)
(push)
(assert (not (le x0 com.lowagie.text.pdf.PdfObject)))
(check-sat)
(pop)
(push)
(assert (le x0 com.lowagie.text.pdf.PRIndirectReference))
(check-sat)
(pop)
(push)
(assert (not (le x0 com.lowagie.text.pdf.PRIndirectReference)))
(check-sat)
(pop)
(push)
(assert (le x0 com.lowagie.text.pdf.PdfObject))
(check-sat)
(push)
(assert (le x0 com.lowagie.text.pdf.PdfObject))
(check-sat)
(pop)
(push)
(assert (not (le x0 com.lowagie.text.pdf.PdfObject)))
(check-sat)
(pop)
(push)
(assert (le x0 com.lowagie.text.pdf.PRIndirectReference))
(check-sat)
(pop)
(push)
(assert (le x0 com.lowagie.text.pdf.PdfLiteral))
(check-sat)
(pop)
(push)
(assert (not (le x0 com.lowagie.text.pdf.PdfDictionary)))
(check-sat)
(push)
(assert (le x0 com.lowagie.text.pdf.PdfObject))
(check-sat)
(push)
(assert (not (le x0 com.lowagie.text.pdf.PdfString)))
(check-sat)
(push)
(assert (not (le x0 com.lowagie.text.pdf.PdfLiteral)))
(check-sat)
(push)
(assert (not (le x0 com.lowagie.text.pdf.PdfArray)))
(check-sat)
(pop)
(pop)
(pop)
(pop)
(pop)
(push)
(assert (le x0 com.lowagie.text.pdf.PdfWriter_currencysign_PdfTrailer))
(check-sat)
(pop)
(push)
(assert (le x0 com.lowagie.text.pdf.PdfArray))
(check-sat)
(push)
(assert (not (le x0 com.lowagie.text.pdf.PdfDashPattern)))
(check-sat)
(pop)
(pop)
(push)
(assert (le x0 com.lowagie.text.pdf.PdfString))
(check-sat)
(pop)
(push)
(assert (not (le x0 com.lowagie.text.pdf.PdfOutline)))
(check-sat)
(push)
(assert (not (le x0 com.lowagie.text.pdf.PdfWriter_currencysign_PdfTrailer)))
(check-sat)
(push)
(assert (le x0 com.lowagie.text.pdf.PdfDictionary))
(check-sat)
(push)
(assert (not (le x0 com.lowagie.text.pdf.PdfStream)))
(check-sat)
(pop)
(pop)
(pop)
(pop)
(push)
(assert (le x0 com.lowagie.text.pdf.PdfStream))
(check-sat)
(push)
(assert (not (le x0 com.lowagie.text.pdf.PdfEFStream)))
(check-sat)
(push)
(assert (not (le x0 com.lowagie.text.pdf.PRStream)))
(check-sat)
(pop)
(pop)
(pop)
(push)
(assert (le x0 com.lowagie.text.pdf.PRStream))
(check-sat)
(pop)
(push)
(assert (le x0 com.lowagie.text.pdf.PdfDashPattern))
(check-sat)
(pop)
(push)
(assert (le x0 com.lowagie.text.pdf.PdfEFStream))
(check-sat)
(pop)
(push)
(assert (le x0 com.lowagie.text.pdf.PdfOutline))
(check-sat)
(pop)
(pop)
(push)
(assert (not (le x0 com.lowagie.text.pdf.PdfObject)))
(check-sat)
(pop)
(pop)
(push)
(assert (not (le x0 com.lowagie.text.pdf.PdfObject)))
(check-sat)
(pop)
(pop)
(push)
(assert (not (le x0 com.lowagie.text.pdf.PdfObject)))
(check-sat)
(pop)
(push)
(assert (le x0 com.lowagie.text.pdf.PdfObject))
(check-sat)
(push)
(assert (le x0 com.lowagie.text.pdf.PRIndirectReference))
(check-sat)
(pop)
(push)
(assert (le x0 com.lowagie.text.pdf.PdfLiteral))
(check-sat)
(pop)
(push)
(assert (not (le x0 com.lowagie.text.pdf.PdfDictionary)))
(check-sat)
(push)
(assert (le x0 com.lowagie.text.pdf.PdfObject))
(check-sat)
(push)
(assert (not (le x0 com.lowagie.text.pdf.PdfString)))
(check-sat)
(push)
(assert (not (le x0 com.lowagie.text.pdf.PdfLiteral)))
(check-sat)
(push)
(assert (not (le x0 com.lowagie.text.pdf.PdfArray)))
(check-sat)
(pop)
(pop)
(pop)
(pop)
(pop)
(push)
(assert (le x0 com.lowagie.text.pdf.PdfWriter_currencysign_PdfTrailer))
(check-sat)
(pop)
(push)
(assert (le x0 com.lowagie.text.pdf.PdfArray))
(check-sat)
(push)
(assert (not (le x0 com.lowagie.text.pdf.PdfDashPattern)))
(check-sat)
(pop)
(pop)
(push)
(assert (le x0 com.lowagie.text.pdf.PdfString))
(check-sat)
(pop)
(push)
(assert (not (le x0 com.lowagie.text.pdf.PdfOutline)))
(check-sat)
(push)
(assert (not (le x0 com.lowagie.text.pdf.PdfWriter_currencysign_PdfTrailer)))
(check-sat)
(push)
(assert (le x0 com.lowagie.text.pdf.PdfDictionary))
(check-sat)
(push)
(assert (not (le x0 com.lowagie.text.pdf.PdfStream)))
(check-sat)
(pop)
(pop)
(pop)
(pop)
(push)
(assert (le x0 com.lowagie.text.pdf.PdfStream))
(check-sat)
(push)
(assert (not (le x0 com.lowagie.text.pdf.PdfEFStream)))
(check-sat)
(push)
(assert (not (le x0 com.lowagie.text.pdf.PRStream)))
(check-sat)
(pop)
(pop)
(pop)
(push)
(assert (le x0 com.lowagie.text.pdf.PRStream))
(check-sat)
(pop)
(push)
(assert (le x0 com.lowagie.text.pdf.PdfDashPattern))
(check-sat)
(pop)
(push)
(assert (le x0 com.lowagie.text.pdf.PdfEFStream))
(check-sat)
(pop)
(push)
(assert (le x0 com.lowagie.text.pdf.PdfOutline))
(check-sat)
(pop)
(pop)
(push)
(assert (not (le x0 com.lowagie.text.pdf.PdfObject)))
(check-sat)
(pop)
(pop)
(push)
(assert (not (le x0 com.lowagie.text.pdf.PdfObject)))
(check-sat)
(pop)
(pop)
(push)
(assert (not (le x0 com.lowagie.text.pdf.PdfObject)))
(check-sat)
(pop)
(push)
(assert (le x0 com.lowagie.text.pdf.PdfObject))
(check-sat)
(push)
(assert (le x0 com.lowagie.text.pdf.PdfObject))
(check-sat)
(push)
(assert (le x0 com.lowagie.text.pdf.PdfObject))
(check-sat)
(push)
(assert (le x0 com.lowagie.text.pdf.PdfObject))
(check-sat)
(push)
(assert (le x0 com.lowagie.text.pdf.PdfObject))
(check-sat)
(push)
(assert (le x0 com.lowagie.text.pdf.PdfObject))
(check-sat)
(push)
(assert (le x0 com.lowagie.text.pdf.PdfObject))
(check-sat)
(pop)
(push)
(assert (not (le x0 com.lowagie.text.pdf.PdfObject)))
(check-sat)
(pop)
(push)
(assert (le x0 com.lowagie.text.pdf.PdfObject))
(check-sat)
(pop)
(push)
(assert (not (le x0 com.lowagie.text.pdf.PdfObject)))
(check-sat)
(pop)
(pop)
(push)
(assert (not (le x0 com.lowagie.text.pdf.PdfObject)))
(check-sat)
(pop)
(push)
(assert (le x0 com.lowagie.text.pdf.PdfObject))
(check-sat)
(push)
(assert (le x0 com.lowagie.text.pdf.PdfObject))
(check-sat)
(push)
(assert (le x0 com.lowagie.text.pdf.PdfObject))
(check-sat)
(pop)
(push)
(assert (not (le x0 com.lowagie.text.pdf.PdfObject)))
(check-sat)
(pop)
(pop)
(push)
(assert (not (le x0 com.lowagie.text.pdf.PdfObject)))
(check-sat)
(pop)
(pop)
(push)
(assert (not (le x0 com.lowagie.text.pdf.PdfObject)))
(check-sat)
(pop)
(pop)
(push)
(assert (not (le x0 com.lowagie.text.pdf.PdfObject)))
(check-sat)
(pop)
(push)
(assert (le x0 com.lowagie.text.pdf.PdfObject))
(check-sat)
(pop)
(push)
(assert (not (le x0 com.lowagie.text.pdf.PdfObject)))
(check-sat)
(pop)
(push)
(assert (le x0 com.lowagie.text.pdf.PdfObject))
(check-sat)
(pop)
(push)
(assert (not (le x0 com.lowagie.text.pdf.PdfObject)))
(check-sat)
(pop)
(pop)
(push)
(assert (not (le x0 com.lowagie.text.pdf.PdfObject)))
(check-sat)
(pop)
(pop)
(push)
(assert (not (le x0 com.lowagie.text.pdf.PdfObject)))
(check-sat)
(pop)
(push)
(assert (le x0 com.lowagie.text.pdf.PdfObject))
(check-sat)
(push)
(assert (le x0 com.lowagie.text.pdf.PdfObject))
(check-sat)
(push)
(assert (le x0 com.lowagie.text.pdf.PdfObject))
(check-sat)
(pop)
(push)
(assert (not (le x0 com.lowagie.text.pdf.PdfObject)))
(check-sat)
(pop)
(push)
(assert (le x0 com.lowagie.text.pdf.PdfObject))
(check-sat)
(pop)
(push)
(assert (not (le x0 com.lowagie.text.pdf.PdfObject)))
(check-sat)
(pop)
(push)
(assert (le x0 com.lowagie.text.pdf.PdfObject))
(check-sat)
(push)
(assert (le x0 com.lowagie.text.pdf.PdfObject))
(check-sat)
(push)
(assert (le x0 com.lowagie.text.pdf.PdfObject))
(check-sat)
(pop)
(push)
(assert (not (le x0 com.lowagie.text.pdf.PdfObject)))
(check-sat)
(pop)
(pop)
(push)
(assert (not (le x0 com.lowagie.text.pdf.PdfObject)))
(check-sat)
(pop)
(push)
(assert (le x0 com.lowagie.text.pdf.PdfObject))
(check-sat)
(push)
(assert (le x0 com.lowagie.text.pdf.PdfObject))
(check-sat)
(push)
(assert (le x0 com.lowagie.text.pdf.PdfObject))
(check-sat)
(pop)
(push)
(assert (not (le x0 com.lowagie.text.pdf.PdfObject)))
(check-sat)
(pop)
(push)
(assert (le x0 com.lowagie.text.pdf.PdfObject))
(check-sat)
(pop)
(push)
(assert (not (le x0 com.lowagie.text.pdf.PdfObject)))
(check-sat)
(pop)
(push)
(assert (le x0 com.lowagie.text.pdf.PdfObject))
(check-sat)
(push)
(assert (le x0 com.lowagie.text.pdf.PRIndirectReference))
(check-sat)
(pop)
(push)
(assert (le x0 com.lowagie.text.pdf.PdfLiteral))
(check-sat)
(pop)
(push)
(assert (not (le x0 com.lowagie.text.pdf.PdfDictionary)))
(check-sat)
(push)
(assert (le x0 com.lowagie.text.pdf.PdfObject))
(check-sat)
(push)
(assert (not (le x0 com.lowagie.text.pdf.PdfString)))
(check-sat)
(push)
(assert (not (le x0 com.lowagie.text.pdf.PdfLiteral)))
(check-sat)
(push)
(assert (not (le x0 com.lowagie.text.pdf.PdfArray)))
(check-sat)
(pop)
(pop)
(pop)
(pop)
(pop)
(push)
(assert (le x0 com.lowagie.text.pdf.PdfWriter_currencysign_PdfTrailer))
(check-sat)
(pop)
(push)
(assert (le x0 com.lowagie.text.pdf.PdfArray))
(check-sat)
(push)
(assert (not (le x0 com.lowagie.text.pdf.PdfDashPattern)))
(check-sat)
(pop)
(pop)
(push)
(assert (le x0 com.lowagie.text.pdf.PdfString))
(check-sat)
(pop)
(push)
(assert (not (le x0 com.lowagie.text.pdf.PdfOutline)))
(check-sat)
(push)
(assert (not (le x0 com.lowagie.text.pdf.PdfWriter_currencysign_PdfTrailer)))
(check-sat)
(push)
(assert (le x0 com.lowagie.text.pdf.PdfDictionary))
(check-sat)
(push)
(assert (not (le x0 com.lowagie.text.pdf.PdfStream)))
(check-sat)
(pop)
(pop)
(pop)
(pop)
(push)
(assert (le x0 com.lowagie.text.pdf.PdfStream))
(check-sat)
(push)
(assert (not (le x0 com.lowagie.text.pdf.PdfEFStream)))
(check-sat)
(push)
(assert (not (le x0 com.lowagie.text.pdf.PRStream)))
(check-sat)
(pop)
(pop)
(pop)
(push)
(assert (le x0 com.lowagie.text.pdf.PRStream))
(check-sat)
(pop)
(push)
(assert (le x0 com.lowagie.text.pdf.PdfDashPattern))
(check-sat)
(pop)
(push)
(assert (le x0 com.lowagie.text.pdf.PdfEFStream))
(check-sat)
(pop)
(push)
(assert (le x0 com.lowagie.text.pdf.PdfOutline))
(check-sat)
(pop)
(pop)
(push)
(assert (not (le x0 com.lowagie.text.pdf.PdfObject)))
(check-sat)
(pop)
(pop)
(push)
(assert (not (le x0 com.lowagie.text.pdf.PdfObject)))
(check-sat)
(pop)
(pop)
(push)
(assert (not (le x0 com.lowagie.text.pdf.PdfObject)))
(check-sat)
(pop)
(push)
(assert (le x0 com.lowagie.text.pdf.PRIndirectReference))
(check-sat)
(pop)
(push)
(assert (le x0 com.lowagie.text.pdf.PdfLiteral))
(check-sat)
(pop)
(push)
(assert (not (le x0 com.lowagie.text.pdf.PdfDictionary)))
(check-sat)
(push)
(assert (le x0 com.lowagie.text.pdf.PdfObject))
(check-sat)
(push)
(assert (not (le x0 com.lowagie.text.pdf.PdfString)))
(check-sat)
(push)
(assert (not (le x0 com.lowagie.text.pdf.PdfLiteral)))
(check-sat)
(push)
(assert (not (le x0 com.lowagie.text.pdf.PdfArray)))
(check-sat)
(pop)
(pop)
(pop)
(pop)
(pop)
(push)
(assert (le x0 com.lowagie.text.pdf.PdfWriter_currencysign_PdfTrailer))
(check-sat)
(pop)
(push)
(assert (le x0 com.lowagie.text.pdf.PdfArray))
(check-sat)
(push)
(assert (not (le x0 com.lowagie.text.pdf.PdfDashPattern)))
(check-sat)
(push)
(assert (le x0 com.lowagie.text.pdf.PdfObject))
(check-sat)
(pop)
(push)
(assert (not (le x0 com.lowagie.text.pdf.PdfObject)))
(check-sat)
(pop)
(push)
(assert (le x0 com.lowagie.text.pdf.PdfObject))
(check-sat)
(push)
(assert (le x0 com.lowagie.text.pdf.PdfObject))
(check-sat)
(push)
(assert (le x0 com.lowagie.text.pdf.PdfObject))
(check-sat)
(push)
(assert (le x0 com.lowagie.text.pdf.PdfObject))
(check-sat)
(pop)
(push)
(assert (not (le x0 com.lowagie.text.pdf.PdfObject)))
(check-sat)
(pop)
(pop)
(push)
(assert (not (le x0 com.lowagie.text.pdf.PdfObject)))
(check-sat)
(pop)
(push)
(assert (le x0 com.lowagie.text.pdf.PdfObject))
(check-sat)
(pop)
(push)
(assert (not (le x0 com.lowagie.text.pdf.PdfObject)))
(check-sat)
(pop)
(push)
(assert (le x0 com.lowagie.text.pdf.PdfObject))
(check-sat)
(pop)
(push)
(assert (not (le x0 com.lowagie.text.pdf.PdfObject)))
(check-sat)
(pop)
(pop)
(push)
(assert (not (le x0 com.lowagie.text.pdf.PdfObject)))
(check-sat)
(pop)
(push)
(assert (le x0 com.lowagie.text.pdf.PRIndirectReference))
(check-sat)
(pop)
(push)
(assert (not (le x0 com.lowagie.text.pdf.PRIndirectReference)))
(check-sat)
(push)
(assert (le x0 com.lowagie.text.pdf.PdfIndirectReference))
(check-sat)
(pop)
(push)
(assert (not (le x0 com.lowagie.text.pdf.PdfIndirectReference)))
(check-sat)
(push)
(assert (le x0 com.lowagie.text.pdf.PdfObject))
(check-sat)
(pop)
(push)
(assert (not (le x0 com.lowagie.text.pdf.PdfObject)))
(check-sat)
(pop)
(push)
(assert (le x0 com.lowagie.text.pdf.PdfIndirectReference))
(check-sat)
(pop)
(push)
(assert (not (le x0 com.lowagie.text.pdf.PdfIndirectReference)))
(check-sat)
(push)
(assert (le x0 com.lowagie.text.pdf.PdfIndirectReference))
(check-sat)
(pop)
(push)
(assert (not (le x0 com.lowagie.text.pdf.PdfIndirectReference)))
(check-sat)
(pop)
(pop)
(pop)
(pop)
(pop)
(push)
(assert (not (le x0 com.lowagie.text.pdf.PdfObject)))
(check-sat)
(pop)
(push)
(assert (le x0 com.lowagie.text.pdf.PdfObject))
(check-sat)
(push)
(assert (le x0 com.lowagie.text.pdf.PRIndirectReference))
(check-sat)
(pop)
(push)
(assert (not (le x0 com.lowagie.text.pdf.PRIndirectReference)))
(check-sat)
(push)
(assert (le x0 com.lowagie.text.pdf.PdfObject))
(check-sat)
(pop)
(push)
(assert (not (le x0 com.lowagie.text.pdf.PdfObject)))
(check-sat)
(pop)
(pop)
(pop)
(push)
(assert (not (le x0 com.lowagie.text.pdf.PdfObject)))
(check-sat)
(pop)
(pop)
(pop)
(push)
(assert (le x0 com.lowagie.text.pdf.PdfString))
(check-sat)
(pop)
(push)
(assert (not (le x0 com.lowagie.text.pdf.PdfOutline)))
(check-sat)
(push)
(assert (not (le x0 com.lowagie.text.pdf.PdfWriter_currencysign_PdfTrailer)))
(check-sat)
(push)
(assert (le x0 com.lowagie.text.pdf.PdfDictionary))
(check-sat)
(push)
(assert (not (le x0 com.lowagie.text.pdf.PdfStream)))
(check-sat)
(pop)
(pop)
(pop)
(pop)
(push)
(assert (le x0 com.lowagie.text.pdf.PdfStream))
(check-sat)
(push)
(assert (not (le x0 com.lowagie.text.pdf.PdfEFStream)))
(check-sat)
(push)
(assert (not (le x0 com.lowagie.text.pdf.PRStream)))
(check-sat)
(pop)
(pop)
(pop)
(push)
(assert (le x0 com.lowagie.text.pdf.PRStream))
(check-sat)
(pop)
(push)
(assert (le x0 com.lowagie.text.pdf.PdfDashPattern))
(check-sat)
(pop)
(push)
(assert (le x0 com.lowagie.text.pdf.PdfEFStream))
(check-sat)
(pop)
(push)
(assert (le x0 com.lowagie.text.pdf.PdfOutline))
(check-sat)
(pop)
(pop)
(push)
(assert (not (le x0 com.lowagie.text.pdf.PdfObject)))
(check-sat)
(pop)
(pop)
(push)
(assert (not (le x0 com.lowagie.text.pdf.PdfObject)))
(check-sat)
(pop)
(pop)
(push)
(assert (not (le x0 com.lowagie.text.pdf.PdfObject)))
(check-sat)
(pop)
(push)
(assert (le x0 com.lowagie.text.pdf.PdfObject))
(check-sat)
(pop)
(push)
(assert (not (le x0 com.lowagie.text.pdf.PdfObject)))
(check-sat)
(pop)
(push)
(assert (le x0 com.lowagie.text.pdf.PdfObject))
(check-sat)
(pop)
(push)
(assert (not (le x0 com.lowagie.text.pdf.PdfObject)))
(check-sat)
(pop)
(push)
(assert (le x0 com.lowagie.text.pdf.PdfDictionary))
(check-sat)
(pop)
(push)
(assert (not (le x0 com.lowagie.text.pdf.PdfDictionary)))
(check-sat)
(push)
(assert (le x0 com.lowagie.text.pdf.PdfDictionary))
(check-sat)
(pop)
(push)
(assert (not (le x0 com.lowagie.text.pdf.PdfDictionary)))
(check-sat)
(push)
(assert (le x0 com.lowagie.text.pdf.PdfDictionary))
(check-sat)
(pop)
(push)
(assert (not (le x0 com.lowagie.text.pdf.PdfDictionary)))
(check-sat)
(push)
(assert (le x0 com.lowagie.text.pdf.PdfDictionary))
(check-sat)
(pop)
(push)
(assert (not (le x0 com.lowagie.text.pdf.PdfDictionary)))
(check-sat)
(pop)
(push)
(assert (le x0 com.lowagie.text.pdf.PdfDictionary))
(check-sat)
(pop)
(push)
(assert (not (le x0 com.lowagie.text.pdf.PdfDictionary)))
(check-sat)
(push)
(assert (le x0 com.lowagie.text.pdf.PdfDictionary))
(check-sat)
(pop)
(push)
(assert (not (le x0 com.lowagie.text.pdf.PdfDictionary)))
(check-sat)
(pop)
(pop)
(pop)
(push)
(assert (le x0 com.lowagie.text.pdf.PdfDictionary))
(check-sat)
(pop)
(push)
(assert (not (le x0 com.lowagie.text.pdf.PdfDictionary)))
(check-sat)
(push)
(assert (le x0 com.lowagie.text.pdf.PdfDictionary))
(check-sat)
(pop)
(push)
(assert (not (le x0 com.lowagie.text.pdf.PdfDictionary)))
(check-sat)
(pop)
(pop)
(push)
(assert (le x0 com.lowagie.text.pdf.PdfDictionary))
(check-sat)
(pop)
(push)
(assert (not (le x0 com.lowagie.text.pdf.PdfDictionary)))
(check-sat)
(push)
(assert (le x0 com.lowagie.text.pdf.PdfDictionary))
(check-sat)
(pop)
(push)
(assert (not (le x0 com.lowagie.text.pdf.PdfDictionary)))
(check-sat)
(push)
(assert (le x0 com.lowagie.text.pdf.PdfDictionary))
(check-sat)
(pop)
(push)
(assert (not (le x0 com.lowagie.text.pdf.PdfDictionary)))
(check-sat)
(push)
(assert (le x0 com.lowagie.text.pdf.PdfObject))
(check-sat)
(push)
(assert (le x0 com.lowagie.text.pdf.PdfObject))
(check-sat)
(pop)
(push)
(assert (not (le x0 com.lowagie.text.pdf.PdfObject)))
(check-sat)
(pop)
(push)
(assert (le x0 com.lowagie.text.pdf.PdfObject))
(check-sat)
(pop)
(push)
(assert (not (le x0 com.lowagie.text.pdf.PdfObject)))
(check-sat)
(pop)
(push)
(assert (le x0 com.lowagie.text.pdf.PdfObject))
(check-sat)
(pop)
(push)
(assert (not (le x0 com.lowagie.text.pdf.PdfObject)))
(check-sat)
(pop)
(push)
(assert (le x0 com.lowagie.text.pdf.PdfObject))
(check-sat)
(pop)
(push)
(assert (not (le x0 com.lowagie.text.pdf.PdfObject)))
(check-sat)
(pop)
(pop)
(push)
(assert (not (le x0 com.lowagie.text.pdf.PdfObject)))
(check-sat)
(pop)
(push)
(assert (le x0 com.lowagie.text.pdf.PdfStream))
(check-sat)
(pop)
(push)
(assert (not (le x0 com.lowagie.text.pdf.PdfStream)))
(check-sat)
(pop)
(pop)
(pop)
(push)
(assert (le x0 com.lowagie.text.pdf.PdfDictionary))
(check-sat)
(pop)
(push)
(assert (not (le x0 com.lowagie.text.pdf.PdfDictionary)))
(check-sat)
(pop)
(push)
(assert (le x0 com.lowagie.text.pdf.PdfDictionary))
(check-sat)
(pop)
(push)
(assert (not (le x0 com.lowagie.text.pdf.PdfDictionary)))
(check-sat)
(push)
(assert (le x0 com.lowagie.text.pdf.PdfDictionary))
(check-sat)
(pop)
(push)
(assert (not (le x0 com.lowagie.text.pdf.PdfDictionary)))
(check-sat)
(pop)
(push)
(assert (le x0 com.lowagie.text.pdf.PdfDictionary))
(check-sat)
(pop)
(push)
(assert (not (le x0 com.lowagie.text.pdf.PdfDictionary)))
(check-sat)
(pop)
(pop)
(pop)
(pop)
(push)
(assert (le x0 com.lowagie.text.pdf.PdfObject))
(check-sat)
(push)
(assert (le x0 com.lowagie.text.pdf.PRIndirectReference))
(check-sat)
(pop)
(push)
(assert (le x0 com.lowagie.text.pdf.PdfLiteral))
(check-sat)
(pop)
(push)
(assert (not (le x0 com.lowagie.text.pdf.PdfDictionary)))
(check-sat)
(push)
(assert (le x0 com.lowagie.text.pdf.PdfObject))
(check-sat)
(push)
(assert (not (le x0 com.lowagie.text.pdf.PdfString)))
(check-sat)
(push)
(assert (not (le x0 com.lowagie.text.pdf.PdfLiteral)))
(check-sat)
(push)
(assert (not (le x0 com.lowagie.text.pdf.PdfArray)))
(check-sat)
(pop)
(pop)
(pop)
(pop)
(pop)
(push)
(assert (le x0 com.lowagie.text.pdf.PdfWriter_currencysign_PdfTrailer))
(check-sat)
(pop)
(push)
(assert (le x0 com.lowagie.text.pdf.PdfArray))
(check-sat)
(push)
(assert (not (le x0 com.lowagie.text.pdf.PdfDashPattern)))
(check-sat)
(push)
(assert (le x0 com.lowagie.text.pdf.PdfObject))
(check-sat)
(pop)
(push)
(assert (not (le x0 com.lowagie.text.pdf.PdfObject)))
(check-sat)
(pop)
(push)
(assert (le x0 com.lowagie.text.pdf.PdfObject))
(check-sat)
(push)
(assert (le x0 com.lowagie.text.pdf.PdfName))
(check-sat)
(pop)
(push)
(assert (not (le x0 com.lowagie.text.pdf.PdfName)))
(check-sat)
(push)
(assert (le x0 com.lowagie.text.pdf.PdfObject))
(check-sat)
(push)
(assert (le x0 com.lowagie.text.pdf.PRIndirectReference))
(check-sat)
(pop)
(push)
(assert (le x0 com.lowagie.text.pdf.PdfLiteral))
(check-sat)
(pop)
(push)
(assert (not (le x0 com.lowagie.text.pdf.PdfDictionary)))
(check-sat)
(push)
(assert (le x0 com.lowagie.text.pdf.PdfObject))
(check-sat)
(push)
(assert (not (le x0 com.lowagie.text.pdf.PdfString)))
(check-sat)
(push)
(assert (not (le x0 com.lowagie.text.pdf.PdfLiteral)))
(check-sat)
(push)
(assert (not (le x0 com.lowagie.text.pdf.PdfArray)))
(check-sat)
(pop)
(pop)
(pop)
(pop)
(pop)
(push)
(assert (le x0 com.lowagie.text.pdf.PdfWriter_currencysign_PdfTrailer))
(check-sat)
(pop)
(push)
(assert (le x0 com.lowagie.text.pdf.PdfArray))
(check-sat)
(push)
(assert (not (le x0 com.lowagie.text.pdf.PdfDashPattern)))
(check-sat)
(pop)
(pop)
(push)
(assert (le x0 com.lowagie.text.pdf.PdfString))
(check-sat)
(pop)
(push)
(assert (not (le x0 com.lowagie.text.pdf.PdfOutline)))
(check-sat)
(push)
(assert (not (le x0 com.lowagie.text.pdf.PdfWriter_currencysign_PdfTrailer)))
(check-sat)
(push)
(assert (le x0 com.lowagie.text.pdf.PdfDictionary))
(check-sat)
(push)
(assert (not (le x0 com.lowagie.text.pdf.PdfStream)))
(check-sat)
(pop)
(pop)
(pop)
(pop)
(push)
(assert (le x0 com.lowagie.text.pdf.PdfStream))
(check-sat)
(push)
(assert (not (le x0 com.lowagie.text.pdf.PdfEFStream)))
(check-sat)
(push)
(assert (not (le x0 com.lowagie.text.pdf.PRStream)))
(check-sat)
(pop)
(pop)
(pop)
(push)
(assert (le x0 com.lowagie.text.pdf.PRStream))
(check-sat)
(pop)
(push)
(assert (le x0 com.lowagie.text.pdf.PdfDashPattern))
(check-sat)
(pop)
(push)
(assert (le x0 com.lowagie.text.pdf.PdfEFStream))
(check-sat)
(pop)
(push)
(assert (le x0 com.lowagie.text.pdf.PdfOutline))
(check-sat)
(pop)
(pop)
(push)
(assert (not (le x0 com.lowagie.text.pdf.PdfObject)))
(check-sat)
(pop)
(pop)
(pop)
(push)
(assert (not (le x0 com.lowagie.text.pdf.PdfObject)))
(check-sat)
(pop)
(pop)
(pop)
(push)
(assert (le x0 com.lowagie.text.pdf.PdfString))
(check-sat)
(pop)
(push)
(assert (not (le x0 com.lowagie.text.pdf.PdfOutline)))
(check-sat)
(push)
(assert (not (le x0 com.lowagie.text.pdf.PdfWriter_currencysign_PdfTrailer)))
(check-sat)
(push)
(assert (le x0 com.lowagie.text.pdf.PdfDictionary))
(check-sat)
(push)
(assert (not (le x0 com.lowagie.text.pdf.PdfStream)))
(check-sat)
(pop)
(pop)
(pop)
(pop)
(push)
(assert (le x0 com.lowagie.text.pdf.PdfStream))
(check-sat)
(push)
(assert (not (le x0 com.lowagie.text.pdf.PdfEFStream)))
(check-sat)
(push)
(assert (not (le x0 com.lowagie.text.pdf.PRStream)))
(check-sat)
(pop)
(pop)
(pop)
(push)
(assert (le x0 com.lowagie.text.pdf.PRStream))
(check-sat)
(pop)
(push)
(assert (le x0 com.lowagie.text.pdf.PdfDashPattern))
(check-sat)
(pop)
(push)
(assert (le x0 com.lowagie.text.pdf.PdfEFStream))
(check-sat)
(pop)
(push)
(assert (le x0 com.lowagie.text.pdf.PdfOutline))
(check-sat)
(pop)
(pop)
(push)
(assert (not (le x0 com.lowagie.text.pdf.PdfObject)))
(check-sat)
(pop)
(pop)
(pop)
(push)
(assert (not (le x0 com.lowagie.text.pdf.PdfObject)))
(check-sat)
(pop)
(push)
(assert (le x0 com.lowagie.text.pdf.PdfDictionary))
(check-sat)
(pop)
(push)
(assert (not (le x0 com.lowagie.text.pdf.PdfDictionary)))
(check-sat)
(push)
(assert (le x0 com.lowagie.text.pdf.PdfDictionary))
(check-sat)
(pop)
(push)
(assert (not (le x0 com.lowagie.text.pdf.PdfDictionary)))
(check-sat)
(push)
(assert (le x0 com.lowagie.text.pdf.PdfDictionary))
(check-sat)
(pop)
(push)
(assert (not (le x0 com.lowagie.text.pdf.PdfDictionary)))
(check-sat)
(pop)
(push)
(assert (le x0 com.lowagie.text.pdf.PdfObject))
(check-sat)
(pop)
(push)
(assert (not (le x0 com.lowagie.text.pdf.PdfObject)))
(check-sat)
(pop)
(push)
(assert (le x0 com.lowagie.text.pdf.ByteBuffer))
(check-sat)
(pop)
(push)
(assert (le x0 com.lowagie.text.pdf.PRAcroForm))
(check-sat)
(pop)
(push)
(assert (le x0 java.io.ByteArrayOutputStream))
(check-sat)
(pop)
(push)
(assert (le x0 org.dom4j.io.ElementStack))
(check-sat)
(pop)
(push)
(assert (le x0 com.lowagie.text.pdf.PdfReader_currencysign_PageRefs))
(check-sat)
(pop)
(push)
(assert (not (le x0 java.util.TreeMap)))
(check-sat)
(push)
(assert (le x0 java.util.AbstractMap))
(check-sat)
(push)
(assert (not (le x0 java.util.WeakHashMap)))
(check-sat)
(push)
(assert (not (le x0 java.util.HashMap)))
(check-sat)
(push)
(assert (not (le x0 java.util.IdentityHashMap)))
(check-sat)
(push)
(assert (not (le x0 org.dom4j.tree.ConcurrentReaderHashMap)))
(check-sat)
(pop)
(pop)
(pop)
(pop)
(pop)
(pop)
(push)
(assert (le x0 com.lowagie.text.Cell))
(check-sat)
(pop)
(push)
(assert (le x0 com.lowagie.text.pdf.PdfCell))
(check-sat)
(pop)
(push)
(assert (le x0 com.lowagie.text.pdf.IntHashtable))
(check-sat)
(pop)
(push)
(assert (le x0 java.util.IdentityHashMap))
(check-sat)
(pop)
(push)
(assert (le x0 org.dom4j.tree.ContentListFacade))
(check-sat)
(pop)
(push)
(assert (le x0 java.awt.RenderingHints))
(check-sat)
(pop)
(push)
(assert (le x0 java.util.TreeSet))
(check-sat)
(pop)
(push)
(assert (le x0 com.lowagie.text.pdf.PdfArray))
(check-sat)
(pop)
(push)
(assert (le x0 java.util.Hashtable))
(check-sat)
(pop)
(push)
(assert (le x0 com.lowagie.text.pdf.PdfDictionary))
(check-sat)
(push)
(assert (not (le x0 com.lowagie.text.pdf.PRAcroForm)))
(check-sat)
(pop)
(pop)
(push)
(assert (le x0 org.jaxen.util.SingletonList))
(check-sat)
(pop)
(push)
(assert (le x0 com.lowagie.text.pdf.PdfContentByte))
(check-sat)
(pop)
(push)
(assert (le x0 java.util.AbstractCollection))
(check-sat)
(pop)
(push)
(assert (le x0 com.lowagie.text.pdf.PdfWriter_currencysign_PdfBody))
(check-sat)
(pop)
(push)
(assert (le x0 java.util.Vector))
(check-sat)
(pop)
(push)
(assert (le x0 java.util.ArrayList))
(check-sat)
(pop)
(push)
(assert (le x0 java.util.LinkedList))
(check-sat)
(pop)
(push)
(assert (le x0 org.dom4j.tree.NamespaceStack))
(check-sat)
(pop)
(push)
(assert (le x0 java.util.HashSet))
(check-sat)
(pop)
(push)
(assert (le x0 org.dom4j.tree.ConcurrentReaderHashMap))
(check-sat)
(pop)
(push)
(assert (le x0 java.util.HashMap))
(check-sat)
(pop)
(push)
(assert (le x0 java.util.WeakHashMap))
(check-sat)
(pop)
(push)
(assert (not (le x0 java.util.Hashtable)))
(check-sat)
(pop)
(push)
(assert (le x0 java.util.TreeMap))
(check-sat)
(pop)
(pop)
(pop)
(pop)
(push)
(assert (not (le x0 com.lowagie.text.pdf.PdfObject)))
(check-sat)
(pop)
(pop)
(push)
(assert (not (le x0 com.lowagie.text.pdf.PdfObject)))
(check-sat)
(pop)
